2 88
65 52
1 91
4 7
36 74
84 30
55 60
19 59
70 9
10 44
28 13
15 193
15 36
5 12
27 89
87 38
16 27
43 37
82 8
61 87
6 76
7 97
4 147
8 112
58 22
12 160
94 38
6 107
54 110
2 80
55 25
78 30
24 148
31 124
20 140
20 68
22 48
45 60
28 128
26 71
48 75
6 107
76 26
9 192
41 102
26 55
42 7
21 8
41 118
54 94
